46
75
60	9
59	13
58	16
57	10
56	8
55	16
54	14
53	6
52	5
51	12
50	11
49	10
48	7
47	15
46	10
45	9
44	12
43	14
42	15
41	14
40	13
39	8
38	8
37	12
36	9
35	12
34	14
33	6
32	16
31	15
30	16
29	5
28	9
27	7
26	8
25	9
24	8
23	13
22	12
21	9
20	15
19	12
18	7
17	9
16	10
15	12
